data/FP/pine-benchmarks/ex3_leadlag.txt
x0 := 0.499 * x0 - 0.05 * x1 + in0
x1 := 0.01 * x0 + x1

in0 \in [-1.0,1.0]
x0 \in [0,0]
x1 \in [0,0]